p cnf 296 2275
119 201 203 0
134 142 205 208 0
102 144 149 0
124 158 162 0
130 216 218 0
91 221 223 228 0
80 114 0
164 168 239 0
78 105 176 0
143 167 199 0
155 171 175 0
180 257 0
85 148 259 0
133 188 191 263 0
63 96 126 0
187 193 0
52 121 166 194 195 0
88 100 132 140 0
135 196 0
33 71 73 75 77 0
45 69 70 172 0
65 67 68 178 184 0
109 123 151 159 0
64 93 97 128 0
60 61 112 0
55 56 57 58 59 0
50 53 54 138 0
48 115 136 0
47 106 197 0
43 46 182 0
146 160 0
42 101 110 122 0
62 125 154 0
38 40 82 84 0
36 186 190 0
35 51 99 150 0
32 34 76 0
31 118 202 204 0
66 141 206 209 0
104 211 282 0
153 163 213 285 0
92 145 0
81 157 161 214 215 0
129 217 219 0
90 220 222 224 229 230 0
117 139 231 234 277 0
49 108 137 226 237 0
169 200 238 240 0
242 243 245 246 248 0
177 249 250 0
44 181 183 198 251 0
252 254 269 0
41 127 179 255 256 258 0
37 39 86 147 260 262 0
189 192 264 265 266 0
-119 -142 0
-119 -152 0
-94 -119 0
-142 -152 0
-94 -142 0
-94 -152 0
-85 -180 0
-63 -180 0
-87 -180 0
-63 -85 0
-85 -87 0
-63 -87 0
-61 -131 0
-59 -131 0
-131 -225 0
-59 -61 0
-61 -225 0
-59 -225 0
-46 -268 0
-101 -268 0
-154 -268 0
-46 -101 0
-46 -154 0
-101 -154 0
-119 -180 0
-119 -131 0
-119 -268 0
-131 -180 0
-180 -268 0
-131 -268 0
-85 -142 0
-61 -142 0
-46 -142 0
-61 -85 0
-46 -85 0
-46 -61 0
-63 -152 0
-59 -152 0
-101 -152 0
-59 -63 0
-63 -101 0
-59 -101 0
-87 -94 0
-94 -225 0
-94 -154 0
-87 -225 0
-87 -154 0
-154 -225 0
-143 -244 0
-132 -271 0
-77 -132 0
-132 -178 0
-77 -271 0
-178 -271 0
-77 -178 0
-60 -272 0
-58 -272 0
-54 -272 0
-58 -60 0
-54 -60 0
-54 -58 0
-150 -273 0
-120 -273 0
-273 -274 0
-118 -273 0
-141 -273 0
-120 -150 0
-150 -274 0
-118 -150 0
-141 -150 0
-120 -274 0
-118 -120 0
-120 -141 0
-118 -274 0
-141 -274 0
-118 -141 0
-95 -153 0
-153 -214 0
-153 -220 0
-153 -275 0
-153 -231 0
-95 -214 0
-95 -220 0
-95 -275 0
-95 -231 0
-214 -220 0
-214 -275 0
-214 -231 0
-220 -275 0
-220 -231 0
-231 -275 0
-238 -242 0
-181 -238 0
-238 -276 0
-179 -238 0
-86 -238 0
-181 -242 0
-242 -276 0
-179 -242 0
-86 -242 0
-181 -276 0
-179 -181 0
-86 -181 0
-179 -276 0
-86 -276 0
-86 -179 0
-132 -272 0
-132 -273 0
-132 -153 0
-132 -238 0
-272 -273 0
-153 -272 0
-238 -272 0
-153 -273 0
-238 -273 0
-153 -238 0
-60 -271 0
-150 -271 0
-95 -271 0
-242 -271 0
-60 -150 0
-60 -95 0
-60 -242 0
-95 -150 0
-150 -242 0
-95 -242 0
-58 -77 0
-77 -120 0
-77 -214 0
-77 -181 0
-58 -120 0
-58 -214 0
-58 -181 0
-120 -214 0
-120 -181 0
-181 -214 0
-54 -178 0
-178 -274 0
-178 -220 0
-178 -276 0
-54 -274 0
-54 -220 0
-54 -276 0
-220 -274 0
-274 -276 0
-220 -276 0
-118 -143 0
-143 -275 0
-143 -179 0
-118 -275 0
-118 -179 0
-179 -275 0
-141 -244 0
-231 -244 0
-86 -244 0
-141 -231 0
-86 -141 0
-86 -231 0
-74 -134 0
-134 -173 0
-134 -185 0
-134 -221 0
-74 -173 0
-74 -185 0
-74 -221 0
-173 -185 0
-173 -221 0
-185 -221 0
-236 -278 0
-164 -278 0
-232 -278 0
-171 -278 0
-164 -236 0
-232 -236 0
-171 -236 0
-164 -232 0
-164 -171 0
-171 -232 0
-148 -263 0
-126 -148 0
-83 -148 0
-121 -148 0
-126 -263 0
-83 -263 0
-121 -263 0
-83 -126 0
-121 -126 0
-83 -121 0
-33 -70 0
-243 -249 0
-134 -278 0
-134 -148 0
-134 -243 0
-148 -278 0
-243 -278 0
-148 -243 0
-74 -236 0
-74 -263 0
-74 -249 0
-236 -263 0
-236 -249 0
-249 -263 0
-164 -173 0
-126 -173 0
-33 -173 0
-126 -164 0
-33 -164 0
-33 -126 0
-185 -232 0
-83 -185 0
-70 -185 0
-83 -232 0
-70 -232 0
-70 -83 0
-171 -221 0
-121 -221 0
-121 -171 0
-158 -210 0
-210 -216 0
-91 -210 0
-158 -216 0
-91 -158 0
-91 -216 0
-191 -279 0
-191 -280 0
-166 -191 0
-279 -280 0
-166 -279 0
-166 -280 0
-53 -57 0
-57 -115 0
-57 -106 0
-57 -241 0
-53 -115 0
-53 -106 0
-53 -241 0
-106 -115 0
-115 -241 0
-106 -241 0
-40 -42 0
-36 -42 0
-42 -267 0
-42 -281 0
-36 -40 0
-40 -267 0
-40 -281 0
-36 -267 0
-36 -281 0
-267 -281 0
-215 -222 0
-165 -215 0
-215 -277 0
-215 -237 0
-165 -222 0
-222 -277 0
-222 -237 0
-165 -277 0
-165 -237 0
-237 -277 0
-44 -170 0
-44 -127 0
-44 -147 0
-44 -264 0
-127 -170 0
-147 -170 0
-170 -264 0
-127 -147 0
-127 -264 0
-147 -264 0
-191 -210 0
-42 -57 0
-57 -215 0
-44 -57 0
-42 -215 0
-42 -44 0
-44 -215 0
-40 -53 0
-53 -222 0
-53 -170 0
-40 -222 0
-40 -170 0
-170 -222 0
-158 -279 0
-115 -158 0
-36 -158 0
-158 -165 0
-127 -158 0
-115 -279 0
-36 -279 0
-165 -279 0
-127 -279 0
-36 -115 0
-115 -165 0
-115 -127 0
-36 -165 0
-36 -127 0
-127 -165 0
-216 -280 0
-106 -216 0
-216 -267 0
-216 -277 0
-147 -216 0
-106 -280 0
-267 -280 0
-277 -280 0
-147 -280 0
-106 -267 0
-106 -277 0
-106 -147 0
-267 -277 0
-147 -267 0
-147 -277 0
-91 -166 0
-91 -241 0
-91 -281 0
-91 -237 0
-91 -264 0
-166 -241 0
-166 -281 0
-166 -237 0
-166 -264 0
-241 -281 0
-237 -241 0
-241 -264 0
-237 -281 0
-264 -281 0
-237 -264 0
-205 -283 0
-205 -286 0
-205 -207 0
-149 -205 0
-124 -205 0
-130 -205 0
-205 -223 0
-283 -286 0
-207 -283 0
-149 -283 0
-124 -283 0
-130 -283 0
-223 -283 0
-207 -286 0
-149 -286 0
-124 -286 0
-130 -286 0
-223 -286 0
-149 -207 0
-124 -207 0
-130 -207 0
-207 -223 0
-124 -149 0
-130 -149 0
-149 -223 0
-124 -130 0
-124 -223 0
-130 -223 0
-227 -233 0
-168 -233 0
-233 -235 0
-78 -233 0
-167 -233 0
-233 -270 0
-155 -233 0
-168 -227 0
-227 -235 0
-78 -227 0
-167 -227 0
-227 -270 0
-155 -227 0
-168 -235 0
-78 -168 0
-167 -168 0
-168 -270 0
-155 -168 0
-78 -235 0
-167 -235 0
-235 -270 0
-155 -235 0
-78 -167 0
-78 -270 0
-78 -155 0
-167 -270 0
-155 -167 0
-155 -270 0
-188 -259 0
-96 -259 0
-259 -261 0
-187 -259 0
-259 -287 0
-259 -288 0
-194 -259 0
-96 -188 0
-188 -261 0
-187 -188 0
-188 -287 0
-188 -288 0
-188 -194 0
-96 -261 0
-96 -187 0
-96 -287 0
-96 -288 0
-96 -194 0
-187 -261 0
-261 -287 0
-261 -288 0
-194 -261 0
-187 -287 0
-187 -288 0
-187 -194 0
-287 -288 0
-194 -287 0
-194 -288 0
-69 -75 0
-68 -75 0
-75 -289 0
-75 -109 0
-64 -75 0
-68 -69 0
-69 -289 0
-69 -109 0
-64 -69 0
-68 -289 0
-68 -109 0
-64 -68 0
-109 -289 0
-64 -289 0
-64 -109 0
-56 -290 0
-50 -56 0
-48 -56 0
-47 -56 0
-56 -291 0
-50 -290 0
-48 -290 0
-47 -290 0
-290 -291 0
-48 -50 0
-47 -50 0
-50 -291 0
-47 -48 0
-48 -291 0
-47 -291 0
-51 -89 0
-51 -292 0
-51 -76 0
-51 -72 0
-31 -51 0
-51 -66 0
-51 -211 0
-89 -292 0
-76 -89 0
-72 -89 0
-31 -89 0
-66 -89 0
-89 -211 0
-76 -292 0
-72 -292 0
-31 -292 0
-66 -292 0
-211 -292 0
-72 -76 0
-31 -76 0
-66 -76 0
-76 -211 0
-31 -72 0
-66 -72 0
-72 -211 0
-31 -66 0
-31 -211 0
-66 -211 0
-92 -98 0
-98 -157 0
-98 -217 0
-90 -98 0
-98 -293 0
-98 -139 0
-98 -137 0
-92 -157 0
-92 -217 0
-90 -92 0
-92 -293 0
-92 -139 0
-92 -137 0
-157 -217 0
-90 -157 0
-157 -293 0
-139 -157 0
-137 -157 0
-90 -217 0
-217 -293 0
-139 -217 0
-137 -217 0
-90 -293 0
-90 -139 0
-90 -137 0
-139 -293 0
-137 -293 0
-137 -139 0
-245 -250 0
-183 -245 0
-245 -252 0
-111 -245 0
-245 -255 0
-39 -245 0
-192 -245 0
-183 -250 0
-250 -252 0
-111 -250 0
-250 -255 0
-39 -250 0
-192 -250 0
-183 -252 0
-111 -183 0
-183 -255 0
-39 -183 0
-183 -192 0
-111 -252 0
-252 -255 0
-39 -252 0
-192 -252 0
-111 -255 0
-39 -111 0
-111 -192 0
-39 -255 0
-192 -255 0
-39 -192 0
-205 -233 0
-205 -259 0
-51 -205 0
-98 -205 0
-205 -245 0
-233 -259 0
-51 -233 0
-98 -233 0
-233 -245 0
-51 -259 0
-98 -259 0
-245 -259 0
-51 -98 0
-51 -245 0
-98 -245 0
-227 -283 0
-188 -283 0
-89 -283 0
-92 -283 0
-250 -283 0
-188 -227 0
-89 -227 0
-92 -227 0
-227 -250 0
-89 -188 0
-92 -188 0
-188 -250 0
-89 -92 0
-89 -250 0
-92 -250 0
-168 -286 0
-96 -286 0
-75 -286 0
-56 -286 0
-286 -292 0
-157 -286 0
-183 -286 0
-96 -168 0
-75 -168 0
-56 -168 0
-168 -292 0
-157 -168 0
-168 -183 0
-75 -96 0
-56 -96 0
-96 -292 0
-96 -157 0
-96 -183 0
-56 -75 0
-75 -292 0
-75 -157 0
-75 -183 0
-56 -292 0
-56 -157 0
-56 -183 0
-157 -292 0
-183 -292 0
-157 -183 0
-207 -235 0
-207 -261 0
-69 -207 0
-207 -290 0
-76 -207 0
-207 -217 0
-207 -252 0
-235 -261 0
-69 -235 0
-235 -290 0
-76 -235 0
-217 -235 0
-235 -252 0
-69 -261 0
-261 -290 0
-76 -261 0
-217 -261 0
-252 -261 0
-69 -290 0
-69 -76 0
-69 -217 0
-69 -252 0
-76 -290 0
-217 -290 0
-252 -290 0
-76 -217 0
-76 -252 0
-217 -252 0
-78 -149 0
-149 -187 0
-68 -149 0
-50 -149 0
-72 -149 0
-90 -149 0
-111 -149 0
-78 -187 0
-68 -78 0
-50 -78 0
-72 -78 0
-78 -90 0
-78 -111 0
-68 -187 0
-50 -187 0
-72 -187 0
-90 -187 0
-111 -187 0
-50 -68 0
-68 -72 0
-68 -90 0
-68 -111 0
-50 -72 0
-50 -90 0
-50 -111 0
-72 -90 0
-72 -111 0
-90 -111 0
-124 -167 0
-124 -287 0
-124 -289 0
-48 -124 0
-31 -124 0
-124 -293 0
-124 -255 0
-167 -287 0
-167 -289 0
-48 -167 0
-31 -167 0
-167 -293 0
-167 -255 0
-287 -289 0
-48 -287 0
-31 -287 0
-287 -293 0
-255 -287 0
-48 -289 0
-31 -289 0
-289 -293 0
-255 -289 0
-31 -48 0
-48 -293 0
-48 -255 0
-31 -293 0
-31 -255 0
-255 -293 0
-130 -270 0
-130 -288 0
-109 -130 0
-47 -130 0
-66 -130 0
-130 -139 0
-39 -130 0
-270 -288 0
-109 -270 0
-47 -270 0
-66 -270 0
-139 -270 0
-39 -270 0
-109 -288 0
-47 -288 0
-66 -288 0
-139 -288 0
-39 -288 0
-47 -109 0
-66 -109 0
-109 -139 0
-39 -109 0
-47 -66 0
-47 -139 0
-39 -47 0
-66 -139 0
-39 -66 0
-39 -139 0
-155 -223 0
-194 -223 0
-64 -223 0
-223 -291 0
-211 -223 0
-137 -223 0
-192 -223 0
-155 -194 0
-64 -155 0
-155 -291 0
-155 -211 0
-137 -155 0
-155 -192 0
-64 -194 0
-194 -291 0
-194 -211 0
-137 -194 0
-192 -194 0
-64 -291 0
-64 -211 0
-64 -137 0
-64 -192 0
-211 -291 0
-137 -291 0
-192 -291 0
-137 -211 0
-192 -211 0
-137 -192 0
-45 -67 0
-45 -151 0
-45 -93 0
-67 -151 0
-67 -93 0
-93 -151 0
-62 -84 0
-62 -294 0
-62 -295 0
-84 -294 0
-84 -295 0
-294 -295 0
-34 -296 0
-284 -296 0
-206 -296 0
-282 -296 0
-34 -284 0
-34 -206 0
-34 -282 0
-206 -284 0
-282 -284 0
-206 -282 0
-129 -285 0
-224 -285 0
-234 -285 0
-226 -285 0
-129 -224 0
-129 -234 0
-129 -226 0
-224 -234 0
-224 -226 0
-226 -234 0
-169 -269 0
-156 -169 0
-169 -260 0
-169 -189 0
-156 -269 0
-260 -269 0
-189 -269 0
-156 -260 0
-156 -189 0
-189 -260 0
-285 -296 0
-169 -296 0
-169 -285 0
-45 -62 0
-34 -45 0
-45 -129 0
-45 -269 0
-34 -62 0
-62 -129 0
-62 -269 0
-34 -129 0
-34 -269 0
-129 -269 0
-67 -84 0
-67 -284 0
-67 -224 0
-67 -156 0
-84 -284 0
-84 -224 0
-84 -156 0
-224 -284 0
-156 -284 0
-156 -224 0
-151 -294 0
-151 -206 0
-151 -234 0
-151 -260 0
-206 -294 0
-234 -294 0
-260 -294 0
-206 -234 0
-206 -260 0
-234 -260 0
-93 -295 0
-93 -282 0
-93 -226 0
-93 -189 0
-282 -295 0
-226 -295 0
-189 -295 0
-226 -282 0
-189 -282 0
-189 -226 0
-30 -201 0
-144 -201 0
-162 -201 0
-201 -218 0
-201 -228 0
-30 -144 0
-30 -162 0
-30 -218 0
-30 -228 0
-144 -162 0
-144 -218 0
-144 -228 0
-162 -218 0
-162 -228 0
-218 -228 0
-29 -114 0
-114 -176 0
-114 -199 0
-114 -253 0
-114 -175 0
-29 -176 0
-29 -199 0
-29 -253 0
-29 -175 0
-176 -199 0
-176 -253 0
-175 -176 0
-199 -253 0
-175 -199 0
-175 -253 0
-133 -257 0
-193 -257 0
-28 -257 0
-27 -257 0
-195 -257 0
-133 -193 0
-28 -133 0
-27 -133 0
-133 -195 0
-28 -193 0
-27 -193 0
-193 -195 0
-27 -28 0
-28 -195 0
-27 -195 0
-100 -196 0
-26 -100 0
-100 -123 0
-100 -128 0
-26 -196 0
-123 -196 0
-128 -196 0
-26 -123 0
-26 -128 0
-123 -128 0
-25 -160 0
-25 -186 0
-24 -25 0
-23 -25 0
-160 -186 0
-24 -160 0
-23 -160 0
-24 -186 0
-23 -186 0
-23 -24 0
-256 -262 0
-256 -265 0
-262 -265 0
-114 -201 0
-201 -257 0
-100 -201 0
-25 -201 0
-114 -257 0
-100 -114 0
-25 -114 0
-100 -257 0
-25 -257 0
-25 -100 0
-29 -30 0
-30 -133 0
-30 -196 0
-30 -160 0
-29 -133 0
-29 -196 0
-29 -160 0
-133 -196 0
-133 -160 0
-160 -196 0
-144 -176 0
-144 -193 0
-176 -193 0
-162 -199 0
-28 -162 0
-26 -162 0
-162 -186 0
-162 -256 0
-28 -199 0
-26 -199 0
-186 -199 0
-199 -256 0
-26 -28 0
-28 -186 0
-28 -256 0
-26 -186 0
-26 -256 0
-186 -256 0
-218 -253 0
-27 -218 0
-123 -218 0
-24 -218 0
-218 -262 0
-27 -253 0
-123 -253 0
-24 -253 0
-253 -262 0
-27 -123 0
-24 -27 0
-27 -262 0
-24 -123 0
-123 -262 0
-24 -262 0
-175 -228 0
-195 -228 0
-128 -228 0
-23 -228 0
-228 -265 0
-175 -195 0
-128 -175 0
-23 -175 0
-175 -265 0
-128 -195 0
-23 -195 0
-195 -265 0
-23 -128 0
-128 -265 0
-23 -265 0
-203 -208 0
-103 -203 0
-203 -212 0
-22 -203 0
-102 -203 0
-103 -208 0
-208 -212 0
-22 -208 0
-102 -208 0
-103 -212 0
-22 -103 0
-102 -103 0
-22 -212 0
-102 -212 0
-22 -102 0
-80 -116 0
-80 -107 0
-80 -239 0
-80 -247 0
-80 -105 0
-107 -116 0
-116 -239 0
-116 -247 0
-105 -116 0
-107 -239 0
-107 -247 0
-105 -107 0
-239 -247 0
-105 -239 0
-105 -247 0
-20 -140 0
-135 -140 0
-73 -140 0
-140 -172 0
-140 -184 0
-20 -135 0
-20 -73 0
-20 -172 0
-20 -184 0
-73 -135 0
-135 -172 0
-135 -184 0
-73 -172 0
-73 -184 0
-172 -184 0
-19 -43 0
-19 -146 0
-19 -122 0
-19 -125 0
-19 -82 0
-43 -146 0
-43 -122 0
-43 -125 0
-43 -82 0
-122 -146 0
-125 -146 0
-82 -146 0
-122 -125 0
-82 -122 0
-82 -125 0
-18 -35 0
-17 -18 0
-16 -18 0
-18 -32 0
-15 -18 0
-18 -202 0
-17 -35 0
-16 -35 0
-32 -35 0
-15 -35 0
-35 -202 0
-16 -17 0
-17 -32 0
-15 -17 0
-17 -202 0
-16 -32 0
-15 -16 0
-16 -202 0
-15 -32 0
-32 -202 0
-15 -202 0
-14 -163 0
-145 -163 0
-161 -163 0
-163 -219 0
-163 -229 0
-113 -163 0
-14 -145 0
-14 -161 0
-14 -219 0
-14 -229 0
-14 -113 0
-145 -161 0
-145 -219 0
-145 -229 0
-113 -145 0
-161 -219 0
-161 -229 0
-113 -161 0
-219 -229 0
-113 -219 0
-113 -229 0
-200 -246 0
-177 -200 0
-198 -200 0
-200 -254 0
-174 -200 0
-200 -258 0
-177 -246 0
-198 -246 0
-246 -254 0
-174 -246 0
-246 -258 0
-177 -198 0
-177 -254 0
-174 -177 0
-177 -258 0
-198 -254 0
-174 -198 0
-198 -258 0
-174 -254 0
-254 -258 0
-174 -258 0
-80 -203 0
-140 -203 0
-19 -203 0
-18 -203 0
-163 -203 0
-200 -203 0
-80 -140 0
-19 -80 0
-18 -80 0
-80 -163 0
-80 -200 0
-19 -140 0
-18 -140 0
-140 -163 0
-140 -200 0
-18 -19 0
-19 -163 0
-19 -200 0
-18 -163 0
-18 -200 0
-163 -200 0
-116 -208 0
-20 -208 0
-43 -208 0
-35 -208 0
-14 -208 0
-208 -246 0
-20 -116 0
-43 -116 0
-35 -116 0
-14 -116 0
-116 -246 0
-20 -43 0
-20 -35 0
-14 -20 0
-20 -246 0
-35 -43 0
-14 -43 0
-43 -246 0
-14 -35 0
-35 -246 0
-14 -246 0
-103 -107 0
-103 -135 0
-103 -146 0
-17 -103 0
-103 -145 0
-103 -177 0
-107 -135 0
-107 -146 0
-17 -107 0
-107 -145 0
-107 -177 0
-135 -146 0
-17 -135 0
-135 -145 0
-135 -177 0
-17 -146 0
-145 -146 0
-146 -177 0
-17 -145 0
-17 -177 0
-145 -177 0
-212 -239 0
-73 -212 0
-122 -212 0
-16 -212 0
-161 -212 0
-198 -212 0
-73 -239 0
-122 -239 0
-16 -239 0
-161 -239 0
-198 -239 0
-73 -122 0
-16 -73 0
-73 -161 0
-73 -198 0
-16 -122 0
-122 -161 0
-122 -198 0
-16 -161 0
-16 -198 0
-161 -198 0
-22 -247 0
-22 -172 0
-22 -125 0
-22 -32 0
-22 -219 0
-22 -254 0
-172 -247 0
-125 -247 0
-32 -247 0
-219 -247 0
-247 -254 0
-125 -172 0
-32 -172 0
-172 -219 0
-172 -254 0
-32 -125 0
-125 -219 0
-125 -254 0
-32 -219 0
-32 -254 0
-219 -254 0
-102 -105 0
-102 -184 0
-82 -102 0
-15 -102 0
-102 -229 0
-102 -174 0
-105 -184 0
-82 -105 0
-15 -105 0
-105 -229 0
-105 -174 0
-82 -184 0
-15 -184 0
-184 -229 0
-174 -184 0
-15 -82 0
-82 -229 0
-82 -174 0
-15 -229 0
-15 -174 0
-174 -229 0
-113 -202 0
-202 -258 0
-113 -258 0
-12 -13 0
-13 -52 0
-12 -52 0
-11 -88 0
-71 -88 0
-65 -88 0
-10 -88 0
-88 -159 0
-88 -97 0
-11 -71 0
-11 -65 0
-10 -11 0
-11 -159 0
-11 -97 0
-65 -71 0
-10 -71 0
-71 -159 0
-71 -97 0
-10 -65 0
-65 -159 0
-65 -97 0
-10 -159 0
-10 -97 0
-97 -159 0
-9 -112 0
-9 -55 0
-9 -138 0
-9 -136 0
-9 -197 0
-8 -9 0
-55 -112 0
-112 -138 0
-112 -136 0
-112 -197 0
-8 -112 0
-55 -138 0
-55 -136 0
-55 -197 0
-8 -55 0
-136 -138 0
-138 -197 0
-8 -138 0
-136 -197 0
-8 -136 0
-8 -197 0
-7 -182 0
-7 -110 0
-7 -38 0
-7 -190 0
-6 -7 0
-5 -7 0
-110 -182 0
-38 -182 0
-182 -190 0
-6 -182 0
-5 -182 0
-38 -110 0
-110 -190 0
-6 -110 0
-5 -110 0
-38 -190 0
-6 -38 0
-5 -38 0
-6 -190 0
-5 -190 0
-5 -6 0
-4 -99 0
-3 -4 0
-2 -4 0
-4 -204 0
-4 -209 0
-4 -104 0
-3 -99 0
-2 -99 0
-99 -204 0
-99 -209 0
-99 -104 0
-2 -3 0
-3 -204 0
-3 -209 0
-3 -104 0
-2 -204 0
-2 -209 0
-2 -104 0
-204 -209 0
-104 -204 0
-104 -209 0
-21 -213 0
-81 -213 0
-213 -230 0
-79 -213 0
-117 -213 0
-108 -213 0
-21 -81 0
-21 -230 0
-21 -79 0
-21 -117 0
-21 -108 0
-81 -230 0
-79 -81 0
-81 -117 0
-81 -108 0
-79 -230 0
-117 -230 0
-108 -230 0
-79 -117 0
-79 -108 0
-108 -117 0
-240 -248 0
-240 -251 0
-1 -240 0
-41 -240 0
-37 -240 0
-240 -266 0
-248 -251 0
-1 -248 0
-41 -248 0
-37 -248 0
-248 -266 0
-1 -251 0
-41 -251 0
-37 -251 0
-251 -266 0
-1 -41 0
-1 -37 0
-1 -266 0
-37 -41 0
-41 -266 0
-37 -266 0
-9 -88 0
-7 -88 0
-4 -88 0
-88 -213 0
-88 -240 0
-7 -9 0
-4 -9 0
-9 -213 0
-9 -240 0
-4 -7 0
-7 -213 0
-7 -240 0
-4 -213 0
-4 -240 0
-213 -240 0
-11 -112 0
-11 -182 0
-11 -99 0
-11 -21 0
-11 -248 0
-112 -182 0
-99 -112 0
-21 -112 0
-112 -248 0
-99 -182 0
-21 -182 0
-182 -248 0
-21 -99 0
-99 -248 0
-21 -248 0
-55 -71 0
-71 -110 0
-3 -71 0
-71 -81 0
-71 -251 0
-55 -110 0
-3 -55 0
-55 -81 0
-55 -251 0
-3 -110 0
-81 -110 0
-110 -251 0
-3 -81 0
-3 -251 0
-81 -251 0
-65 -138 0
-38 -65 0
-2 -65 0
-65 -230 0
-1 -65 0
-38 -138 0
-2 -138 0
-138 -230 0
-1 -138 0
-2 -38 0
-38 -230 0
-1 -38 0
-2 -230 0
-1 -2 0
-1 -230 0
-10 -13 0
-13 -136 0
-13 -190 0
-13 -204 0
-13 -79 0
-13 -41 0
-10 -136 0
-10 -190 0
-10 -204 0
-10 -79 0
-10 -41 0
-136 -190 0
-136 -204 0
-79 -136 0
-41 -136 0
-190 -204 0
-79 -190 0
-41 -190 0
-79 -204 0
-41 -204 0
-41 -79 0
-12 -159 0
-12 -197 0
-6 -12 0
-12 -209 0
-12 -117 0
-12 -37 0
-159 -197 0
-6 -159 0
-159 -209 0
-117 -159 0
-37 -159 0
-6 -197 0
-197 -209 0
-117 -197 0
-37 -197 0
-6 -209 0
-6 -117 0
-6 -37 0
-117 -209 0
-37 -209 0
-37 -117 0
-52 -97 0
-8 -52 0
-5 -52 0
-52 -104 0
-52 -108 0
-52 -266 0
-8 -97 0
-5 -97 0
-97 -104 0
-97 -108 0
-97 -266 0
-5 -8 0
-8 -104 0
-8 -108 0
-8 -266 0
-5 -104 0
-5 -108 0
-5 -266 0
-104 -108 0
-104 -266 0
-108 -266 0
-119 -142 0
-119 -180 0
-85 -119 0
-142 -180 0
-85 -142 0
-85 -180 0
-74 -134 0
-134 -278 0
-134 -236 0
-134 -148 0
-134 -263 0
-74 -278 0
-74 -236 0
-74 -148 0
-74 -263 0
-236 -278 0
-148 -278 0
-263 -278 0
-148 -236 0
-236 -263 0
-148 -263 0
-191 -210 0
-205 -283 0
-205 -233 0
-205 -227 0
-205 -259 0
-188 -205 0
-233 -283 0
-227 -283 0
-259 -283 0
-188 -283 0
-227 -233 0
-233 -259 0
-188 -233 0
-227 -259 0
-188 -227 0
-188 -259 0
-30 -201 0
-114 -201 0
-29 -201 0
-201 -257 0
-133 -201 0
-30 -114 0
-29 -30 0
-30 -257 0
-30 -133 0
-29 -114 0
-114 -257 0
-114 -133 0
-29 -257 0
-29 -133 0
-133 -257 0
-203 -208 0
-103 -203 0
-80 -203 0
-116 -203 0
-107 -203 0
-103 -208 0
-80 -208 0
-116 -208 0
-107 -208 0
-80 -103 0
-103 -116 0
-103 -107 0
-80 -116 0
-80 -107 0
-107 -116 0
-94 -152 0
-63 -152 0
-87 -152 0
-63 -94 0
-87 -94 0
-63 -87 0
-173 -185 0
-164 -173 0
-173 -232 0
-126 -173 0
-83 -173 0
-164 -185 0
-185 -232 0
-126 -185 0
-83 -185 0
-164 -232 0
-126 -164 0
-83 -164 0
-126 -232 0
-83 -232 0
-83 -126 0
-207 -286 0
-149 -286 0
-168 -286 0
-235 -286 0
-78 -286 0
-96 -286 0
-261 -286 0
-187 -286 0
-149 -207 0
-168 -207 0
-207 -235 0
-78 -207 0
-96 -207 0
-207 -261 0
-187 -207 0
-149 -168 0
-149 -235 0
-78 -149 0
-96 -149 0
-149 -261 0
-149 -187 0
-168 -235 0
-78 -168 0
-96 -168 0
-168 -261 0
-168 -187 0
-78 -235 0
-96 -235 0
-235 -261 0
-187 -235 0
-78 -96 0
-78 -261 0
-78 -187 0
-96 -261 0
-96 -187 0
-187 -261 0
-144 -176 0
-144 -193 0
-176 -193 0
-22 -212 0
-102 -212 0
-212 -239 0
-212 -247 0
-105 -212 0
-22 -102 0
-22 -239 0
-22 -247 0
-22 -105 0
-102 -239 0
-102 -247 0
-102 -105 0
-239 -247 0
-105 -239 0
-105 -247 0
-143 -244 0
-171 -221 0
-121 -221 0
-121 -171 0
-158 -216 0
-91 -158 0
-158 -279 0
-158 -280 0
-158 -166 0
-91 -216 0
-216 -279 0
-216 -280 0
-166 -216 0
-91 -279 0
-91 -280 0
-91 -166 0
-279 -280 0
-166 -279 0
-166 -280 0
-124 -130 0
-124 -223 0
-124 -167 0
-124 -270 0
-124 -155 0
-124 -287 0
-124 -288 0
-124 -194 0
-130 -223 0
-130 -167 0
-130 -270 0
-130 -155 0
-130 -287 0
-130 -288 0
-130 -194 0
-167 -223 0
-223 -270 0
-155 -223 0
-223 -287 0
-223 -288 0
-194 -223 0
-167 -270 0
-155 -167 0
-167 -287 0
-167 -288 0
-167 -194 0
-155 -270 0
-270 -287 0
-270 -288 0
-194 -270 0
-155 -287 0
-155 -288 0
-155 -194 0
-287 -288 0
-194 -287 0
-194 -288 0
-162 -218 0
-162 -228 0
-162 -199 0
-162 -253 0
-162 -175 0
-28 -162 0
-27 -162 0
-162 -195 0
-218 -228 0
-199 -218 0
-218 -253 0
-175 -218 0
-28 -218 0
-27 -218 0
-195 -218 0
-199 -228 0
-228 -253 0
-175 -228 0
-28 -228 0
-27 -228 0
-195 -228 0
-199 -253 0
-175 -199 0
-28 -199 0
-27 -199 0
-195 -199 0
-175 -253 0
-28 -253 0
-27 -253 0
-195 -253 0
-28 -175 0
-27 -175 0
-175 -195 0
-27 -28 0
-28 -195 0
-27 -195 0
-12 -13 0
-13 -52 0
-12 -52 0
-61 -131 0
-131 -268 0
-46 -131 0
-61 -268 0
-46 -61 0
-46 -268 0
-132 -271 0
-132 -272 0
-60 -132 0
-271 -272 0
-60 -271 0
-60 -272 0
-100 -196 0
-25 -100 0
-100 -160 0
-25 -196 0
-160 -196 0
-25 -160 0
-20 -140 0
-135 -140 0
-19 -140 0
-43 -140 0
-140 -146 0
-20 -135 0
-19 -20 0
-20 -43 0
-20 -146 0
-19 -135 0
-43 -135 0
-135 -146 0
-19 -43 0
-19 -146 0
-43 -146 0
-11 -88 0
-9 -88 0
-88 -112 0
-7 -88 0
-88 -182 0
-9 -11 0
-11 -112 0
-7 -11 0
-11 -182 0
-9 -112 0
-7 -9 0
-9 -182 0
-7 -112 0
-112 -182 0
-7 -182 0
-59 -225 0
-59 -101 0
-59 -154 0
-101 -225 0
-154 -225 0
-101 -154 0
-77 -178 0
-58 -77 0
-54 -77 0
-58 -178 0
-54 -178 0
-54 -58 0
-33 -70 0
-53 -57 0
-42 -57 0
-40 -57 0
-42 -53 0
-40 -53 0
-40 -42 0
-69 -75 0
-68 -75 0
-56 -75 0
-75 -290 0
-50 -75 0
-68 -69 0
-56 -69 0
-69 -290 0
-50 -69 0
-56 -68 0
-68 -290 0
-50 -68 0
-56 -290 0
-50 -56 0
-50 -290 0
-45 -67 0
-45 -62 0
-45 -84 0
-62 -67 0
-67 -84 0
-62 -84 0
-73 -172 0
-73 -184 0
-73 -122 0
-73 -125 0
-73 -82 0
-172 -184 0
-122 -172 0
-125 -172 0
-82 -172 0
-122 -184 0
-125 -184 0
-82 -184 0
-122 -125 0
-82 -122 0
-82 -125 0
-65 -71 0
-55 -71 0
-71 -138 0
-71 -110 0
-38 -71 0
-55 -65 0
-65 -138 0
-65 -110 0
-38 -65 0
-55 -138 0
-55 -110 0
-38 -55 0
-110 -138 0
-38 -138 0
-38 -110 0
-106 -115 0
-115 -241 0
-36 -115 0
-115 -267 0
-115 -281 0
-106 -241 0
-36 -106 0
-106 -267 0
-106 -281 0
-36 -241 0
-241 -267 0
-241 -281 0
-36 -267 0
-36 -281 0
-267 -281 0
-109 -289 0
-64 -289 0
-48 -289 0
-47 -289 0
-289 -291 0
-64 -109 0
-48 -109 0
-47 -109 0
-109 -291 0
-48 -64 0
-47 -64 0
-64 -291 0
-47 -48 0
-48 -291 0
-47 -291 0
-93 -151 0
-151 -294 0
-151 -295 0
-93 -294 0
-93 -295 0
-294 -295 0
-26 -123 0
-26 -128 0
-26 -186 0
-24 -26 0
-23 -26 0
-123 -128 0
-123 -186 0
-24 -123 0
-23 -123 0
-128 -186 0
-24 -128 0
-23 -128 0
-24 -186 0
-23 -186 0
-23 -24 0
-10 -159 0
-10 -97 0
-10 -136 0
-10 -197 0
-8 -10 0
-10 -190 0
-6 -10 0
-5 -10 0
-97 -159 0
-136 -159 0
-159 -197 0
-8 -159 0
-159 -190 0
-6 -159 0
-5 -159 0
-97 -136 0
-97 -197 0
-8 -97 0
-97 -190 0
-6 -97 0
-5 -97 0
-136 -197 0
-8 -136 0
-136 -190 0
-6 -136 0
-5 -136 0
-8 -197 0
-190 -197 0
-6 -197 0
-5 -197 0
-8 -190 0
-6 -8 0
-5 -8 0
-6 -190 0
-5 -190 0
-5 -6 0
-150 -273 0
-153 -273 0
-95 -273 0
-238 -273 0
-242 -273 0
-150 -153 0
-95 -150 0
-150 -238 0
-150 -242 0
-95 -153 0
-153 -238 0
-153 -242 0
-95 -238 0
-95 -242 0
-238 -242 0
-243 -249 0
-51 -89 0
-51 -98 0
-51 -92 0
-51 -245 0
-51 -250 0
-89 -98 0
-89 -92 0
-89 -245 0
-89 -250 0
-92 -98 0
-98 -245 0
-98 -250 0
-92 -245 0
-92 -250 0
-245 -250 0
-285 -296 0
-169 -296 0
-169 -285 0
-18 -35 0
-17 -18 0
-18 -163 0
-14 -18 0
-18 -145 0
-18 -200 0
-18 -246 0
-18 -177 0
-17 -35 0
-35 -163 0
-14 -35 0
-35 -145 0
-35 -200 0
-35 -246 0
-35 -177 0
-17 -163 0
-14 -17 0
-17 -145 0
-17 -200 0
-17 -246 0
-17 -177 0
-14 -163 0
-145 -163 0
-163 -200 0
-163 -246 0
-163 -177 0
-14 -145 0
-14 -200 0
-14 -246 0
-14 -177 0
-145 -200 0
-145 -246 0
-145 -177 0
-200 -246 0
-177 -200 0
-177 -246 0
-4 -99 0
-4 -213 0
-4 -21 0
-4 -240 0
-4 -248 0
-99 -213 0
-21 -99 0
-99 -240 0
-99 -248 0
-21 -213 0
-213 -240 0
-213 -248 0
-21 -240 0
-21 -248 0
-240 -248 0
-120 -274 0
-120 -214 0
-120 -220 0
-120 -181 0
-120 -276 0
-214 -274 0
-220 -274 0
-181 -274 0
-274 -276 0
-214 -220 0
-181 -214 0
-214 -276 0
-181 -220 0
-220 -276 0
-181 -276 0
-215 -222 0
-44 -215 0
-170 -215 0
-44 -222 0
-170 -222 0
-44 -170 0
-76 -292 0
-72 -292 0
-157 -292 0
-217 -292 0
-90 -292 0
-183 -292 0
-252 -292 0
-111 -292 0
-72 -76 0
-76 -157 0
-76 -217 0
-76 -90 0
-76 -183 0
-76 -252 0
-76 -111 0
-72 -157 0
-72 -217 0
-72 -90 0
-72 -183 0
-72 -252 0
-72 -111 0
-157 -217 0
-90 -157 0
-157 -183 0
-157 -252 0
-111 -157 0
-90 -217 0
-183 -217 0
-217 -252 0
-111 -217 0
-90 -183 0
-90 -252 0
-90 -111 0
-183 -252 0
-111 -183 0
-111 -252 0
-34 -284 0
-34 -129 0
-34 -224 0
-34 -269 0
-34 -156 0
-129 -284 0
-224 -284 0
-269 -284 0
-156 -284 0
-129 -224 0
-129 -269 0
-129 -156 0
-224 -269 0
-156 -224 0
-156 -269 0
-16 -32 0
-15 -16 0
-16 -161 0
-16 -219 0
-16 -229 0
-16 -198 0
-16 -254 0
-16 -174 0
-15 -32 0
-32 -161 0
-32 -219 0
-32 -229 0
-32 -198 0
-32 -254 0
-32 -174 0
-15 -161 0
-15 -219 0
-15 -229 0
-15 -198 0
-15 -254 0
-15 -174 0
-161 -219 0
-161 -229 0
-161 -198 0
-161 -254 0
-161 -174 0
-219 -229 0
-198 -219 0
-219 -254 0
-174 -219 0
-198 -229 0
-229 -254 0
-174 -229 0
-198 -254 0
-174 -198 0
-174 -254 0
-2 -3 0
-3 -81 0
-3 -230 0
-3 -251 0
-1 -3 0
-2 -81 0
-2 -230 0
-2 -251 0
-1 -2 0
-81 -230 0
-81 -251 0
-1 -81 0
-230 -251 0
-1 -230 0
-1 -251 0
-118 -141 0
-118 -275 0
-118 -231 0
-118 -179 0
-86 -118 0
-141 -275 0
-141 -231 0
-141 -179 0
-86 -141 0
-231 -275 0
-179 -275 0
-86 -275 0
-179 -231 0
-86 -231 0
-86 -179 0
-165 -277 0
-165 -237 0
-127 -165 0
-147 -165 0
-165 -264 0
-237 -277 0
-127 -277 0
-147 -277 0
-264 -277 0
-127 -237 0
-147 -237 0
-237 -264 0
-127 -147 0
-127 -264 0
-147 -264 0
-31 -66 0
-31 -211 0
-31 -293 0
-31 -139 0
-31 -137 0
-31 -255 0
-31 -39 0
-31 -192 0
-66 -211 0
-66 -293 0
-66 -139 0
-66 -137 0
-66 -255 0
-39 -66 0
-66 -192 0
-211 -293 0
-139 -211 0
-137 -211 0
-211 -255 0
-39 -211 0
-192 -211 0
-139 -293 0
-137 -293 0
-255 -293 0
-39 -293 0
-192 -293 0
-137 -139 0
-139 -255 0
-39 -139 0
-139 -192 0
-137 -255 0
-39 -137 0
-137 -192 0
-39 -255 0
-192 -255 0
-39 -192 0
-206 -282 0
-206 -234 0
-206 -226 0
-206 -260 0
-189 -206 0
-234 -282 0
-226 -282 0
-260 -282 0
-189 -282 0
-226 -234 0
-234 -260 0
-189 -234 0
-226 -260 0
-189 -226 0
-189 -260 0
-256 -262 0
-256 -265 0
-262 -265 0
-113 -202 0
-202 -258 0
-113 -258 0
-204 -209 0
-104 -204 0
-79 -204 0
-117 -204 0
-108 -204 0
-41 -204 0
-37 -204 0
-204 -266 0
-104 -209 0
-79 -209 0
-117 -209 0
-108 -209 0
-41 -209 0
-37 -209 0
-209 -266 0
-79 -104 0
-104 -117 0
-104 -108 0
-41 -104 0
-37 -104 0
-104 -266 0
-79 -117 0
-79 -108 0
-41 -79 0
-37 -79 0
-79 -266 0
-108 -117 0
-41 -117 0
-37 -117 0
-117 -266 0
-41 -108 0
-37 -108 0
-108 -266 0
-37 -41 0
-41 -266 0
-37 -266 0
